SDVRP instances/custom_instances/p01_22_split0.vrp
NAME:p01_22_split
BEST_KNOWN: 0
COMMENT: 0
DIMENSION: 196
CAPACITY: 160
EDGE_WEIGHT_FORMAT: FUNCTION
EDGE_WEIGHT_TYPE: EXACT_2D
NODE_COORD_SECTION
1 0.00000 0.00000
2 34 -34
3 34 -34
4 34 -34
5 34 -34
6 -40 -30
7 -40 -30
8 -40 -30
9 -40 -30
10 -40 -30
11 -30 39
12 -30 39
13 -30 39
14 -30 39
15 -30 39
16 46 -8
17 46 -8
18 46 -8
19 46 -8
20 46 -8
21 46 -8
22 43 50
23 43 50
24 43 50
25 43 50
26 43 50
27 43 50
28 -16 -28
29 -16 -28
30 -16 -28
31 -16 -28
32 -42 -34
33 -42 -34
34 -42 -34
35 -42 -34
36 -42 -34
37 18 1
38 18 1
39 18 1
40 18 1
41 18 1
42 -50 -4
43 -50 -4
44 -50 -4
45 31 42
46 31 42
47 31 42
48 -24 30
49 -24 30
50 -24 30
51 -24 30
52 -24 30
53 37 33
54 37 33
55 37 33
56 37 33
57 -4 18
58 -4 18
59 -4 18
60 -4 18
61 -4 18
62 14 -3
63 14 -3
64 14 -3
65 14 -3
66 14 -3
67 -14 35
68 -14 35
69 -14 35
70 9 40
71 9 40
72 9 40
73 9 40
74 9 40
75 9 40
76 -14 36
77 -14 36
78 -7 -48
79 -7 -48
80 -7 -48
81 -28 -36
82 -28 -36
83 -28 -36
84 -28 -36
85 -28 -36
86 35 -3
87 35 -3
88 35 -3
89 35 -3
90 35 -3
91 -6 -12
92 -6 -12
93 -6 -12
94 -6 -12
95 -6 -12
96 47 34
97 47 34
98 47 34
99 47 34
100 47 34
101 47 -2
102 47 -2
103 47 -2
104 -44 29
105 -44 29
106 -44 29
107 12 -45
108 12 -45
109 12 -45
110 25 6
111 -48 -43
112 -48 -43
113 -48 -43
114 47 -18
115 47 -18
116 6 -37
117 21 37
118 21 37
119 -13 -6
120 5 28
121 5 28
122 5 28
123 -5 -47
124 -5 -47
125 -5 -47
126 -5 -47
127 -13 20
128 -13 20
129 -13 20
130 38 -33
131 38 -33
132 17 38
133 17 38
134 17 38
135 17 38
136 27 4
137 27 4
138 27 4
139 20 34
140 20 34
141 20 34
142 20 34
143 20 34
144 20 34
145 -32 15
146 -32 15
147 -32 15
148 -32 15
149 -3 33
150 -3 33
151 -3 33
152 39 -4
153 39 -4
154 39 -4
155 39 -4
156 -16 5
157 -16 5
158 -16 5
159 13 -16
160 13 -16
161 13 -16
162 13 -16
163 13 -16
164 13 -16
165 36 41
166 36 41
167 36 41
168 36 41
169 -1 -33
170 -1 -33
171 -1 -33
172 -1 -33
173 -1 -33
174 1 -11
175 1 -11
176 1 -11
177 1 -11
178 -1 13
179 -1 13
180 -1 13
181 -1 13
182 -1 13
183 -1 13
184 -33 41
185 -33 41
186 -33 41
187 -33 41
188 -33 41
189 -49 -49
190 -49 -49
191 -49 -49
192 -49 -49
193 -49 -49
194 -49 -49
195 33 -32
196 33 -32
DEMAND_SECTION
1 0
2 32
3 2
4 2
5 2
6 16
7 8
8 2
9 2
10 1
11 32
12 16
13 8
14 2
15 1
16 16
17 8
18 2
19 2
20 2
21 1
22 32
23 32
24 2
25 2
26 2
27 1
28 32
29 2
30 2
31 1
32 32
33 32
34 8
35 2
36 2
37 32
38 32
39 2
40 2
41 2
42 32
43 16
44 8
45 32
46 8
47 2
48 32
49 16
50 8
51 2
52 1
53 32
54 16
55 8
56 1
57 32
58 16
59 2
60 2
61 1
62 32
63 32
64 2
65 2
66 1
67 32
68 2
69 1
70 32
71 16
72 8
73 2
74 2
75 1
76 32
77 8
78 32
79 32
80 2
81 32
82 32
83 2
84 2
85 1
86 16
87 8
88 2
89 2
90 1
91 32
92 32
93 2
94 2
95 1
96 16
97 2
98 2
99 2
100 1
101 16
102 2
103 2
104 32
105 16
106 2
107 32
108 16
109 1
110 32
111 32
112 32
113 2
114 32
115 8
116 32
117 16
118 8
119 32
120 32
121 32
122 2
123 32
124 32
125 8
126 1
127 32
128 32
129 16
130 32
131 8
132 32
133 16
134 2
135 1
136 32
137 2
138 2
139 32
140 32
141 2
142 2
143 2
144 1
145 16
146 8
147 2
148 2
149 32
150 16
151 2
152 32
153 16
154 8
155 2
156 32
157 32
158 1
159 32
160 16
161 2
162 2
163 2
164 1
165 16
166 2
167 2
168 1
169 16
170 8
171 2
172 2
173 2
174 16
175 8
176 2
177 2
178 32
179 8
180 2
181 2
182 2
183 1
184 32
185 32
186 2
187 2
188 1
189 32
190 32
191 2
192 2
193 2
194 1
195 32
196 2
DEPOT_SECTION
1
-1
EOF