SDVRP instances/custom_instances/p01_22_split0.sol
195 -6 35 34 33 31 32 82 81 84 80 83 28 29 -7 5 8 9 110 111 112 192 189 190 191 188 193 -20 15 16 19 17 18 100 101 102 152 154 153 151 89 86 85 88 87 -40 38 39 36 37 136 137 135 109 -43 41 42 104 103 105 47 48 -44 46 45 166 167 164 165 26 22 25 24 23 21 99 98 97 96 95 -51 50 49 185 183 184 186 187 11 14 13 12 10 128 -55 53 54 52 116 117 138 142 143 141 139 140 -65 64 63 61 62 158 162 160 159 174 175 176 173 -66 67 68 75 76 148 150 149 120 -79 77 78 122 123 125 124 168 170 172 -92 90 27 30 169 171 115 107 106 108 -94 93 91 118 145 144 147 146 156 157 155 -114 113 130 129 4 2 3 1 195 194 163 161 -126 127 60 58 57 56 59 178 181 177 -132 133 131 134 73 69 70 71 74 72 119 121 180 182 179 0 





OBJ=
1612.948
BEST_KNOWN=
0.000